language Essence 1.3

letting blksize_delta be
        function(1 --> 9, 2 --> 9, 3 --> 9, 4 --> 10, 5 --> 9, 6 --> 9, 7 --> 9, 8 --> 9, 9 --> 9, 10 --> 9, 11 --> 9,
                 12 --> 9, 13 --> 9, 14 --> 10, 15 --> 9, 16 --> 10, 17 --> 9, 18 --> 10, 19 --> 9, 20 --> 9, 21 --> 9,
                 22 --> 9, 23 --> 9, 24 --> 9, 25 --> 9, 26 --> 9, 27 --> 9, 28 --> 9, 29 --> 9, 30 --> 9, 31 --> 9,
                 32 --> 9, 33 --> 10, 34 --> 10, 35 --> 9, 36 --> 9, 37 --> 9, 38 --> 9)
letting maxcars be
        function(1 --> 9, 2 --> 9, 3 --> 9, 4 --> 9, 5 --> 10, 6 --> 9, 7 --> 10, 8 --> 9, 9 --> 9, 10 --> 9, 11 --> 10,
                 12 --> 9, 13 --> 9, 14 --> 9, 15 --> 10, 16 --> 10, 17 --> 10, 18 --> 10, 19 --> 10, 20 --> 9,
                 21 --> 9, 22 --> 9, 23 --> 10, 24 --> 10, 25 --> 9, 26 --> 9, 27 --> 9, 28 --> 9, 29 --> 10, 30 --> 10,
                 31 --> 10, 32 --> 9, 33 --> 9, 34 --> 9, 35 --> 9, 36 --> 9, 37 --> 9, 38 --> 9)
letting n_cars be 148
letting n_classes be 18
letting n_options be 38
letting quantity be
        function(1 --> 8, 2 --> 10, 3 --> 8, 4 --> 8, 5 --> 8, 6 --> 8, 7 --> 8, 8 --> 9, 9 --> 8, 10 --> 9, 11 --> 8,
                 12 --> 8, 13 --> 8, 14 --> 8, 15 --> 8, 16 --> 8, 17 --> 8, 18 --> 8)
letting usage be
        relation((1, 1), (1, 2), (1, 10), (1, 15), (1, 19), (1, 27), (1, 29), (1, 33), (1, 36), (2, 2), (2, 4), (2, 9),
                 (2, 13), (2, 16), (2, 20), (2, 22), (2, 23), (2, 25), (2, 26), (2, 27), (2, 37), (3, 1), (3, 2),
                 (3, 6), (3, 8), (3, 11), (3, 14), (3, 15), (3, 19), (3, 23), (3, 35), (4, 1), (4, 6), (4, 12), (4, 16),
                 (4, 18), (4, 21), (4, 24), (4, 25), (4, 26), (4, 28), (4, 33), (5, 2), (5, 5), (5, 6), (5, 8), (5, 10),
                 (5, 12), (5, 13), (5, 16), (5, 21), (5, 34), (6, 7), (6, 8), (6, 16), (6, 20), (6, 23), (6, 28),
                 (6, 33), (6, 37), (6, 38), (7, 1), (7, 3), (7, 6), (7, 7), (7, 12), (7, 13), (7, 15), (7, 19), (7, 21),
                 (7, 24), (7, 28), (7, 29), (7, 36), (8, 6), (8, 8), (8, 9), (8, 11), (8, 17), (8, 19), (8, 29),
                 (8, 31), (8, 34), (8, 38), (9, 18), (9, 20), (9, 22), (9, 25), (9, 26), (9, 31), (10, 1), (10, 2),
                 (10, 5), (10, 13), (10, 18), (10, 29), (10, 31), (10, 34), (11, 8), (11, 13), (11, 17), (11, 18),
                 (11, 19), (11, 22), (11, 23), (11, 31), (11, 33), (12, 1), (12, 2), (12, 8), (12, 10), (12, 15),
                 (12, 16), (12, 20), (12, 31), (13, 10), (13, 15), (13, 16), (13, 22), (13, 25), (13, 26), (13, 33),
                 (13, 37), (14, 12), (14, 18), (14, 25), (14, 26), (14, 28), (14, 33), (15, 4), (15, 15), (15, 21),
                 (15, 22), (15, 25), (15, 28), (15, 29), (15, 32), (15, 35), (15, 36), (15, 37), (16, 1), (16, 5),
                 (16, 7), (16, 8), (16, 15), (16, 25), (16, 29), (16, 30), (16, 31), (16, 36), (17, 6), (17, 11),
                 (17, 19), (17, 24), (17, 36), (18, 6), (18, 8), (18, 15), (18, 16), (18, 18), (18, 19), (18, 20),
                 (18, 21), (18, 23), (18, 26), (18, 30), (18, 35))
$ Visualisation for usage
$  1  1
$  1  2
$  1 10
$  1 15
$  1 19
$  1 27
$  1 29
$  1 33
$  1 36
$  2  2
$  2  4
$  2  9
$  2 13
$  2 16
$  2 20
$  2 22
$  2 23
$  2 25
$  2 26
$  2 27
$  2 37
$  3  1
$  3  2
$  3  6
$  3  8
$  3 11
$  3 14
$  3 15
$  3 19
$  3 23
$  3 35
$  4  1
$  4  6
$  4 12
$  4 16
$  4 18
$  4 21
$  4 24
$  4 25
$  4 26
$  4 28
$  4 33
$  5  2
$  5  5
$  5  6
$  5  8
$  5 10
$  5 12
$  5 13
$  5 16
$  5 21
$  5 34
$  6  7
$  6  8
$  6 16
$  6 20
$  6 23
$  6 28
$  6 33
$  6 37
$  6 38
$  7  1
$  7  3
$  7  6
$  7  7
$  7 12
$  7 13
$  7 15
$  7 19
$  7 21
$  7 24
$  7 28
$  7 29
$  7 36
$  8  6
$  8  8
$  8  9
$  8 11
$  8 17
$  8 19
$  8 29
$  8 31
$  8 34
$  8 38
$  9 18
$  9 20
$  9 22
$  9 25
$  9 26
$  9 31
$ 10  1
$ 10  2
$ 10  5
$ 10 13
$ 10 18
$ 10 29
$ 10 31
$ 10 34
$ 11  8
$ 11 13
$ 11 17
$ 11 18
$ 11 19
$ 11 22
$ 11 23
$ 11 31
$ 11 33
$ 12  1
$ 12  2
$ 12  8
$ 12 10
$ 12 15
$ 12 16
$ 12 20
$ 12 31
$ 13 10
$ 13 15
$ 13 16
$ 13 22
$ 13 25
$ 13 26
$ 13 33
$ 13 37
$ 14 12
$ 14 18
$ 14 25
$ 14 26
$ 14 28
$ 14 33
$ 15  4
$ 15 15
$ 15 21
$ 15 22
$ 15 25
$ 15 28
$ 15 29
$ 15 32
$ 15 35
$ 15 36
$ 15 37
$ 16  1
$ 16  5
$ 16  7
$ 16  8
$ 16 15
$ 16 25
$ 16 29
$ 16 30
$ 16 31
$ 16 36
$ 17  6
$ 17 11
$ 17 19
$ 17 24
$ 17 36
$ 18  6
$ 18  8
$ 18 15
$ 18 16
$ 18 18
$ 18 19
$ 18 20
$ 18 21
$ 18 23
$ 18 26
$ 18 30
$ 18 35

